certificates/rado_a11_c82_N38.cnf
c Rad2 upper bound instance: x1 + 11*x2 - x3 = 82, interval [1,38]
p cnf 38 256
1 7 8 0
-1 -7 -8 0
1 9 18 0
-1 -9 -18 0
1 10 29 0
-1 -10 -29 0
2 8 0
-2 -8 0
2 9 19 0
-2 -9 -19 0
2 10 30 0
-2 -10 -30 0
3 8 9 0
-3 -8 -9 0
3 9 20 0
-3 -9 -20 0
3 10 31 0
-3 -10 -31 0
4 8 10 0
-4 -8 -10 0
4 9 21 0
-4 -9 -21 0
4 10 32 0
-4 -10 -32 0
5 8 11 0
-5 -8 -11 0
5 9 22 0
-5 -9 -22 0
5 10 33 0
-5 -10 -33 0
1 6 7 0
-1 -6 -7 0
6 8 12 0
-6 -8 -12 0
6 9 23 0
-6 -9 -23 0
6 10 34 0
-6 -10 -34 0
2 7 0
-2 -7 0
7 8 13 0
-7 -8 -13 0
7 9 24 0
-7 -9 -24 0
7 10 35 0
-7 -10 -35 0
3 7 8 0
-3 -7 -8 0
8 14 0
-8 -14 0
8 9 25 0
-8 -9 -25 0
8 10 36 0
-8 -10 -36 0
4 7 9 0
-4 -7 -9 0
8 9 15 0
-8 -9 -15 0
9 26 0
-9 -26 0
9 10 37 0
-9 -10 -37 0
5 7 10 0
-5 -7 -10 0
8 10 16 0
-8 -10 -16 0
9 10 27 0
-9 -10 -27 0
10 38 0
-10 -38 0
6 7 11 0
-6 -7 -11 0
8 11 17 0
-8 -11 -17 0
9 11 28 0
-9 -11 -28 0
7 12 0
-7 -12 0
8 12 18 0
-8 -12 -18 0
9 12 29 0
-9 -12 -29 0
8 13 19 0
-8 -13 -19 0
9 13 30 0
-9 -13 -30 0
7 9 14 0
-7 -9 -14 0
8 14 20 0
-8 -14 -20 0
9 14 31 0
-9 -14 -31 0
7 10 15 0
-7 -10 -15 0
8 15 21 0
-8 -15 -21 0
9 15 32 0
-9 -15 -32 0
7 11 16 0
-7 -11 -16 0
8 16 22 0
-8 -16 -22 0
9 16 33 0
-9 -16 -33 0
1 6 17 0
-1 -6 -17 0
7 12 17 0
-7 -12 -17 0
8 17 23 0
-8 -17 -23 0
9 17 34 0
-9 -17 -34 0
2 6 18 0
-2 -6 -18 0
7 13 18 0
-7 -13 -18 0
8 18 24 0
-8 -18 -24 0
9 18 35 0
-9 -18 -35 0
3 6 19 0
-3 -6 -19 0
7 14 19 0
-7 -14 -19 0
8 19 25 0
-8 -19 -25 0
9 19 36 0
-9 -19 -36 0
4 6 20 0
-4 -6 -20 0
7 15 20 0
-7 -15 -20 0
8 20 26 0
-8 -20 -26 0
9 20 37 0
-9 -20 -37 0
5 6 21 0
-5 -6 -21 0
7 16 21 0
-7 -16 -21 0
8 21 27 0
-8 -21 -27 0
9 21 38 0
-9 -21 -38 0
6 22 0
-6 -22 0
7 17 22 0
-7 -17 -22 0
8 22 28 0
-8 -22 -28 0
6 7 23 0
-6 -7 -23 0
7 18 23 0
-7 -18 -23 0
8 23 29 0
-8 -23 -29 0
6 8 24 0
-6 -8 -24 0
7 19 24 0
-7 -19 -24 0
8 24 30 0
-8 -24 -30 0
6 9 25 0
-6 -9 -25 0
7 20 25 0
-7 -20 -25 0
8 25 31 0
-8 -25 -31 0
6 10 26 0
-6 -10 -26 0
7 21 26 0
-7 -21 -26 0
8 26 32 0
-8 -26 -32 0
6 11 27 0
-6 -11 -27 0
7 22 27 0
-7 -22 -27 0
8 27 33 0
-8 -27 -33 0
1 5 28 0
-1 -5 -28 0
6 12 28 0
-6 -12 -28 0
7 23 28 0
-7 -23 -28 0
8 28 34 0
-8 -28 -34 0
2 5 29 0
-2 -5 -29 0
6 13 29 0
-6 -13 -29 0
7 24 29 0
-7 -24 -29 0
8 29 35 0
-8 -29 -35 0
3 5 30 0
-3 -5 -30 0
6 14 30 0
-6 -14 -30 0
7 25 30 0
-7 -25 -30 0
8 30 36 0
-8 -30 -36 0
4 5 31 0
-4 -5 -31 0
6 15 31 0
-6 -15 -31 0
7 26 31 0
-7 -26 -31 0
8 31 37 0
-8 -31 -37 0
5 32 0
-5 -32 0
6 16 32 0
-6 -16 -32 0
7 27 32 0
-7 -27 -32 0
8 32 38 0
-8 -32 -38 0
5 6 33 0
-5 -6 -33 0
6 17 33 0
-6 -17 -33 0
7 28 33 0
-7 -28 -33 0
5 7 34 0
-5 -7 -34 0
6 18 34 0
-6 -18 -34 0
7 29 34 0
-7 -29 -34 0
5 8 35 0
-5 -8 -35 0
6 19 35 0
-6 -19 -35 0
7 30 35 0
-7 -30 -35 0
5 9 36 0
-5 -9 -36 0
6 20 36 0
-6 -20 -36 0
7 31 36 0
-7 -31 -36 0
5 10 37 0
-5 -10 -37 0
6 21 37 0
-6 -21 -37 0
7 32 37 0
-7 -32 -37 0
5 11 38 0
-5 -11 -38 0
6 22 38 0
-6 -22 -38 0
7 33 38 0
-7 -33 -38 0
