certificates/rado_a11_c82_N38.drat
-33 -38 0
7 8 -38 0
8 -38 0
d 7 8 -38 0
-38 0
10 0
7 0
-2 0
-12 0
-35 0
-15 0
-5 0
8 0
29 0
32 0
11 0
-14 0
-36 0
-16 0
-4 0
-1 0
-13 0
-3 0
-34 0
-23 0
-24 0
-37 0
-26 0
-27 0
-17 0
-6 0
9 0
31 0
28 0
30 0
0
